Data path: /scratch/opt/lxu/CFLG/benchmarks/tree_A
Instance: treeA.200.30
Result path: /scratch/opt/lxu/CFLG/results/tree_A
Solver: Gurobi
Time limit: 7200
Formulation: EF
Cover: Large
julia --project=. src/main.jl /scratch/opt/lxu/CFLG/benchmarks/tree_A treeA.200.30 /scratch/opt/lxu/CFLG/results/tree_A Gurobi 7200 EF Large
The latest version of Julia in the `release` channel is 1.11.5+0.x64.linux.gnu. You currently have `1.11.4+0.x64.linux.gnu` installed. Run:

  juliaup update

in your terminal shell to install Julia 1.11.5+0.x64.linux.gnu and update the `release` channel to that version.
/scratch/opt/lxu/CFLG/benchmarks/tree_A Gurobi 7200.0 /scratch/opt/lxu/CFLG/results/tree_A treeA.200.30 EF Large
/scratch/opt/lxu/CFLG/benchmarks/tree_A/treeA.200.30

 read graph
data loaded

problem_graph/original graph: node: 200/200 edge: 229/229 dlt: 3.0113703010947375 break_avg_len: 1.5056851505473687 break_max_len: 1.995483602652346elapsed CPU time: 0.03901 seconds
Set parameter TokenServer to value "solice01.zib.de"
Set parameter Threads to value 1
Set parameter OutputFlag to value 1
Set parameter MIPGap to value 0.0001
Set parameter MIPGapAbs to value 0.999998
Set parameter TimeLimit to value 7199.96099

 model loaded

Gurobi Optimizer version 12.0.1 build v12.0.1rc0 (linux64 - "Debian GNU/Linux 12 (bookworm)")

CPU model: Intel(R) Xeon(R) Gold 5222 CPU @ 3.80GHz, instruction set [SSE2|AVX|AVX2|AVX512]
Thread count: 8 physical cores, 16 logical processors, using up to 1 threads

Non-default parameters:
TimeLimit  7199.96099
MIPGapAbs  0.999998
Threads  1

Optimize a model with 36236273 rows, 12231806 columns and 96522813 nonzeros
Model fingerprint: 0x438ba28e
Variable types: 137629 continuous, 12094177 integer (12094177 binary)
Coefficient statistics:
  Matrix range     [1e+00, 6e+01]
  Objective range  [1e+00, 1e+00]
  Bounds range     [1e+00, 2e+00]
  RHS range        [2e-03, 6e+01]
slurmstepd-htc-cmp486: error: Detected 1 oom_kill event in StepId=14591177.0. Some of the step tasks have been OOM Killed.
srun: error: htc-cmp486: task 0: Out Of Memory
